 vasp.5.4.1 05Feb16 (build Nov 01 2017 19:46:48) complex

 executed on     INTEL16_impi_mkl date 2018.08.21  10:49:08

 INCAR:
 POTCAR:    PAW P 26Mar2009
 POTCAR:    PAW O 22Mar2012
 POTCAR:    PAW Ti_sv 26Sep2005
 POTCAR:    PAW P 26Mar2009
   VRHFIN =P : s2p3

   TITEL  = PAW P 26Mar2009
   POMASS =   30.974; ZVAL   =    5.000    mass and valenz
   ENMAX  =  255.155; ENMIN  =  191.366 eV

 POTCAR:    PAW O 22Mar2012
   VRHFIN =O: s2p4

   TITEL  = PAW O 22Mar2012
   POMASS =   16.000; ZVAL   =    6.000    mass and valenz
   ENMAX  =  400.000; ENMIN  =  300.000 eV

 POTCAR:    PAW Ti_sv 26Sep2005
   VRHFIN =Ti: 3s3p4s3d

   TITEL  = PAW Ti_sv 26Sep2005
   POMASS =   47.880; ZVAL   =   12.000    mass and valenz
   ENMAX  =  274.719; ENMIN  =  206.039 eV

  PAW P 26Mar2009                       :
  PAW O 22Mar2012                       :
  PAW Ti_sv 26Sep2005                   :

 POSCAR: Generated by cif2cell 1.2.10. ? :  Faile
  positions in direct lattice
  velocities in cartesian coordinates
 exchange correlation table for  LEXCH =        2
   RHO(1)=    0.500       N(1)  =     2000
   RHO(2)=  100.500       N(2)  =     4000

 ion  position               nearest neighbor table
   1  0.961  0.225  0.656-  13 1.52  17 1.53   9 1.53   5 1.64   7 1.68  24 2.66  21 2.77  23 2.87

   2  0.039  0.775  0.344-  14 1.52  18 1.53  10 1.53   6 1.64   8 1.68  23 2.66  22 2.77  24 2.87

[...]

   4  0.039  0.725  0.844-  16 1.52  20 1.53  12 1.53   8 1.64   6 1.68  21 2.66  24 2.77  22 2.87

   5  0.978  0.168  0.919-   1 1.64   3 1.68  21 1.99  22 2.22
   6  0.022  0.832  0.081-   2 1.64   4 1.68  22 1.99  21 2.22
   7  0.978  0.332  0.419-   3 1.64   1 1.68  23 1.99  24 2.22
   8  0.022  0.668  0.581-   4 1.64   2 1.68  24 1.99  23 2.22
   9  0.337  0.224  0.771-   1 1.53  24 1.96  21 1.98
  10  0.663  0.776  0.229-   2 1.53  23 1.96  22 1.98
  11  0.337  0.276  0.271-   3 1.53  22 1.96  23 1.98
  12  0.663  0.724  0.729-   4 1.53  21 1.96  24 1.98
  13  0.767  0.044  0.541-   1 1.52  22 1.99  21 2.11
  14  0.233  0.956  0.459-   2 1.52  21 1.99  22 2.11
  15  0.767  0.456  0.041-   3 1.52  24 1.99  23 2.11
  16  0.233  0.544  0.959-   4 1.52  23 1.99  24 2.11
  17  0.744  0.397  0.635-   1 1.53  24 1.92  23 2.04
  18  0.256  0.603  0.365-   2 1.53  23 1.92  24 2.04
  19  0.744  0.103  0.135-   3 1.53  22 1.92  21 2.04
  20  0.256  0.897  0.865-   4 1.53  21 1.92  22 2.04
  21  0.597  0.990  0.797-  20 1.92  12 1.96   9 1.98  14 1.99   5 1.99  19 2.04  13 2.11   6 2.22
                             4 2.66   1 2.77   3 2.87
  22  0.403  0.010  0.203-  19 1.92  11 1.96  10 1.98  13 1.99   6 1.99  20 2.04  14 2.11   5 2.22
                             3 2.66   2 2.77   4 2.87
  23  0.597  0.510  0.297-  18 1.92  10 1.96  11 1.98  16 1.99   7 1.99  17 2.04  15 2.11   8 2.22
                             2 2.66   3 2.77   1 2.87
  24  0.403  0.490  0.703-  17 1.92   9 1.96  12 1.98  15 1.99   8 1.99  18 2.04  16 2.11   7 2.22
                             1 2.66   4 2.77   2 2.87

  LATTYP: Found a simple monoclinic cell.
 ALAT       =     5.7324271939
 B/A-ratio  =     1.2160161401
 C/A-ratio  =     1.0811330777
 COS(beta)  =    -0.7042415778

  Lattice vectors:

 A1 = (   1.8542748520,   5.2542148627,  -1.3474466529)
 A2 = (   3.0482897336,  -2.5449406416,  -5.7290662216)
 A3 = (  -5.1039551153,  -3.2829840935,  -1.2573266525)

Analysis of symmetry for initial positions (statically):
 Subroutine PRICEL returns:
 Original cell was already a primitive cell.

 Routine SETGRP: Setting up the symmetry group for a
 simple monoclinic supercell.

 Subroutine GETGRP returns: Found  1 space group operations
 (whereof  1 operations were pure point group operations)
 out of a pool of  4 trial point group operations.

The static configuration has the point symmetry C_1 .

Analysis of symmetry for dynamics (positions and initial velocities):
 Subroutine PRICEL returns:
 Original cell was already a primitive cell.

[...]

The dynamic configuration has the point symmetry C_1 .

Analysis of structural, dynamic, and magnetic symmetry:
 Subroutine PRICEL returns:
 Original cell was already a primitive cell.

 Routine SETGRP: Setting up the symmetry group for a
 simple monoclinic supercell.

 Subroutine GETGRP returns: Found  1 space group operations
 (whereof  1 operations were pure point group operations)
 out of a pool of  4 trial point group operations.

The magnetic configuration has the point symmetry C_1 .

 Subroutine INISYM returns: Found  1 space group operations
 (whereof  1 operations are pure point group operations),
 and found     1 'primitive' translations

 KPOINTS: Automatic mesh

Automatic generation of k-mesh.
Space group operators:
 irot       det(A)        alpha          n_x          n_y          n_z        tau_x        tau_y        tau_z
    1     1.000000     0.000000     1.000000     0.000000     0.000000     0.000000     0.000000     0.000000

 Subroutine IBZKPT returns following result:

 Found     70 irreducible k-points:

 Following reciprocal coordinates:
            Coordinates               Weight
 -0.000000  0.125000  0.000000      2.000000
  0.142857  0.125000  0.000000      2.000000
  0.285714  0.125000  0.000000      2.000000
  0.428571  0.125000 -0.000000      2.000000
 -0.428571  0.125000  0.000000      2.000000
 -0.285714  0.125000  0.000000      2.000000
 -0.142857  0.125000  0.000000      2.000000
 -0.000000  0.375000  0.000000      2.000000
  0.142857  0.375000  0.000000      2.000000
  0.285714  0.375000  0.000000      2.000000
  0.428571  0.375000 -0.000000      2.000000
 -0.428571  0.375000 -0.000000      2.000000
 -0.285714  0.375000 -0.000000      2.000000
 -0.142857  0.375000  0.000000      2.000000
  0.000000  0.125000  0.200000      2.000000
  0.142857  0.125000  0.200000      2.000000
  0.285714  0.125000  0.200000      2.000000
  0.428571  0.125000  0.200000      2.000000
 -0.428571  0.125000  0.200000      2.000000
 -0.285714  0.125000  0.200000      2.000000
 -0.142857  0.125000  0.200000      2.000000
 -0.000000  0.375000  0.200000      2.000000
  0.142857  0.375000  0.200000      2.000000
  0.285714  0.375000  0.200000      2.000000
  0.428571  0.375000  0.200000      2.000000
 -0.428571  0.375000  0.200000      2.000000
 -0.285714  0.375000  0.200000      2.000000
 -0.142857  0.375000  0.200000      2.000000
  0.000000 -0.375000  0.200000      2.000000
  0.142857 -0.375000  0.200000      2.000000
  0.285714 -0.375000  0.200000      2.000000
  0.428571 -0.375000  0.200000      2.000000
 -0.428571 -0.375000  0.200000      2.000000
 -0.285714 -0.375000  0.200000      2.000000
 -0.142857 -0.375000  0.200000      2.000000
  0.000000 -0.125000  0.200000      2.000000
  0.142857 -0.125000  0.200000      2.000000
  0.285714 -0.125000  0.200000      2.000000
  0.428571 -0.125000  0.200000      2.000000
 -0.428571 -0.125000  0.200000      2.000000
 -0.285714 -0.125000  0.200000      2.000000
 -0.142857 -0.125000  0.200000      2.000000
  0.000000  0.125000  0.400000      2.000000
  0.142857  0.125000  0.400000      2.000000
  0.285714  0.125000  0.400000      2.000000
  0.428571  0.125000  0.400000      2.000000
 -0.428571  0.125000  0.400000      2.000000
 -0.285714  0.125000  0.400000      2.000000
 -0.142857  0.125000  0.400000      2.000000
  0.000000  0.375000  0.400000      2.000000
  0.142857  0.375000  0.400000      2.000000
  0.285714  0.375000  0.400000      2.000000
  0.428571  0.375000  0.400000      2.000000
 -0.428571  0.375000  0.400000      2.000000
 -0.285714  0.375000  0.400000      2.000000
 -0.142857  0.375000  0.400000      2.000000
  0.000000 -0.375000  0.400000      2.000000
  0.142857 -0.375000  0.400000      2.000000
  0.285714 -0.375000  0.400000      2.000000
  0.428571 -0.375000  0.400000      2.000000
 -0.428571 -0.375000  0.400000      2.000000
 -0.285714 -0.375000  0.400000      2.000000
 -0.142857 -0.375000  0.400000      2.000000
 -0.000000 -0.125000  0.400000      2.000000
  0.142857 -0.125000  0.400000      2.000000
  0.285714 -0.125000  0.400000      2.000000
  0.428571 -0.125000  0.400000      2.000000
 -0.428571 -0.125000  0.400000      2.000000
 -0.285714 -0.125000  0.400000      2.000000
 -0.142857 -0.125000  0.400000      2.000000

 Following cartesian coordinates:
            Coordinates               Weight
 -0.036265  0.030277  0.068157      2.000000
  0.022386 -0.094000  0.154569      2.000000
  0.081036 -0.218276  0.240981      2.000000
  0.139687 -0.342553  0.327394      2.000000
 -0.212217  0.403108 -0.191080      2.000000
 -0.153566  0.278831 -0.104667      2.000000
 -0.094916  0.154554 -0.018255      2.000000
 -0.108795  0.090832  0.204471      2.000000
 -0.050145 -0.033445  0.290883      2.000000
  0.008506 -0.157722  0.377295      2.000000
  0.067157 -0.281999  0.463708      2.000000
 -0.284747  0.463662 -0.054766      2.000000
 -0.226097  0.339385  0.031646      2.000000
 -0.167446  0.215109  0.118059      2.000000
 -0.130547 -0.109433  0.080053      2.000000
 -0.071897 -0.233710  0.166465      2.000000
 -0.013246 -0.357986  0.252878      2.000000
  0.045405 -0.482263  0.339290      2.000000
 -0.306499  0.263398 -0.179184      2.000000
 -0.247849  0.139121 -0.092771      2.000000
 -0.189198  0.014844 -0.006359      2.000000
 -0.203078 -0.048878  0.216367      2.000000
 -0.144427 -0.173155  0.302779      2.000000
 -0.085776 -0.297432  0.389191      2.000000
 -0.027126 -0.421709  0.475604      2.000000
 -0.379030  0.323952 -0.042870      2.000000
 -0.320379  0.199675  0.043543      2.000000
 -0.261728  0.075399  0.129955      2.000000
  0.014513 -0.230542 -0.192575      2.000000
  0.073164 -0.354819 -0.106163      2.000000
  0.131814 -0.479096 -0.019750      2.000000
  0.190465 -0.603372  0.066662      2.000000
 -0.161439  0.142288 -0.451811      2.000000
 -0.102788  0.018012 -0.365399      2.000000
 -0.044138 -0.106265 -0.278987      2.000000
 -0.058017 -0.169987 -0.056261      2.000000
  0.000633 -0.294264  0.030151      2.000000
  0.059284 -0.418541  0.116564      2.000000
  0.117935 -0.542818  0.202976      2.000000
 -0.233969  0.202843 -0.315497      2.000000
 -0.175319  0.078566 -0.229085      2.000000
 -0.116668 -0.045711 -0.142673      2.000000
 -0.224830 -0.249143  0.091949      2.000000
 -0.166179 -0.373420  0.178361      2.000000
 -0.107529 -0.497697  0.264774      2.000000
 -0.048878 -0.621973  0.351186      2.000000
 -0.400782  0.123687 -0.167287      2.000000
 -0.342131 -0.000589 -0.080875      2.000000
 -0.283481 -0.124866  0.005537      2.000000
 -0.297360 -0.188588  0.228263      2.000000
 -0.238709 -0.312865  0.314675      2.000000
 -0.180059 -0.437142  0.401088      2.000000
 -0.121408 -0.561419  0.487500      2.000000
 -0.473312  0.184242 -0.030973      2.000000
 -0.414661  0.059965  0.055439      2.000000
 -0.356011 -0.064312  0.141851      2.000000
 -0.079770 -0.370252 -0.180679      2.000000
 -0.021119 -0.494529 -0.094266      2.000000
  0.037532 -0.618806 -0.007854      2.000000
  0.096182 -0.743082  0.078558      2.000000
 -0.255722  0.002578 -0.439915      2.000000
 -0.197071 -0.121698 -0.353503      2.000000
 -0.138420 -0.245975 -0.267091      2.000000
 -0.152300 -0.309697 -0.044365      2.000000
[...]

 Free energy of the ion-electron system (eV)
  alpha Z        PSCENC =       711.48137369
  Ewald energy   TEWEN  =    -12095.06753575
  -Hartree energ DENC   =     -2817.71676367
  -exchange      EXHF   =         0.00000000
  -V(xc)+E(xc)   XCENC  =       753.42718404
  PAW double counting   =     27888.80940275   -27821.58846214
  entropy T*S    EENTRO =         0.00000000
  eigenvalues    EBANDS =      -779.77054903
  atomic energy  EATOM  =     13964.18822220
  Solvation  Ediel_sol  =         0.00000000
  free energy    TOTEN  =      -196.23712791 eV

  energy without entropy =     -196.23712791  energy(sigma->0) =     -196.23712791

 average (electrostatic) potential at core
  the test charge radii are     0.9587  0.7215  1.0397
  (the norm of the test charge is              1.0000)
       1 -81.8683       2 -81.8682       3 -81.8684       4 -81.8683       5 -67.4626
       6 -67.4625       7 -67.4631       8 -67.4630       9 -66.4912      10 -66.4909
      11 -66.4913      12 -66.4910      13 -66.5623      14 -66.5624      15 -66.5635
      16 -66.5635      17 -66.4789      18 -66.4790      19 -66.4779      20 -66.4780
      21 -69.9839      22 -69.9839      23 -69.9846      24 -69.9845

 E-fermi :  11.9650     XC(G=0): -13.6382     alpha+bet :-18.2300

 spin component 1

 k-point     1 :      -0.0000    0.1250    0.0000
  band No.  band energies     occupation
      1     -45.8005      1.00000
      2     -45.7953      1.00000
      3     -45.0488      1.00000
      4     -45.0434      1.00000
      5     -22.9271      1.00000
      6     -22.8758      1.00000
      7     -22.6395      1.00000
      8     -22.5944      1.00000
      9     -22.5926      1.00000
     10     -22.5172      1.00000
     11     -22.4317      1.00000
     12     -22.3847      1.00000
     13     -21.6900      1.00000
     14     -21.6392      1.00000
     15     -21.5549      1.00000
     16     -21.4687      1.00000
     17     -14.5885      1.00000
     18     -13.6224      1.00000
     19     -12.1552      1.00000
     20     -11.6755      1.00000
     21     -11.6302      1.00000
     22     -11.2080      1.00000
     23     -10.4830      1.00000
     24     -10.1953      1.00000
     25      -9.9484      1.00000
     26      -9.9407      1.00000
     27      -9.9157      1.00000
     28      -9.7196      1.00000
     29      -9.5771      1.00000
     30      -9.3302      1.00000
     31      -8.5716      1.00000
     32      -8.5129      1.00000
     33      -1.6944      1.00000
     34      -1.2617      1.00000
     35      -1.0024      1.00000
     36      -0.9720      1.00000
     37       0.0717      1.00000
     38       0.4172      1.00000
     39       1.0895      1.00000
     40       1.0909      1.00000
     41       1.3544      1.00000
     42       1.6149      1.00000
     43       1.8164      1.00000
     44       2.1678      1.00000
     45       2.3225      1.00000
     46       2.4855      1.00000
     47       2.6496      1.00000
     48       2.8781      1.00000
     49       3.1728      1.00000
     50       3.3024      1.00000
     51       3.4309      1.00000
     52       3.8669      1.00000
     53       4.1849      1.00000
     54       4.1967      1.00000
     55       4.3741      1.00000
     56       4.4677      1.00000
     57       4.8448      1.00000
     58       5.0373      1.00000
     59       5.4305      1.00000
     60       5.5577      1.00000
[...]
     85      13.9481      0.00000
     86      14.0360      0.00000
     87      14.0634      0.00000
     88      14.1978      0.00000
     89      14.2840      0.00000
     90      14.4449      0.00000
     91      14.5277      0.00000
     92      14.7815      0.00000
     93      14.8428      0.00000
     94      15.1891      0.00000
     95      15.3635      0.00000
     96      15.5110      0.00000
     97      15.5791      0.00000
     98      15.7741      0.00000
     99      16.0299      0.00000

[...]

 spin component 2

[...]

 k-point    70 :      -0.1429   -0.1250    0.4000
  band No.  band energies     occupation
      1     -45.8002      1.00000
      2     -45.7950      1.00000
      3     -45.0490      1.00000
      4     -45.0435      1.00000
      5     -22.9195      1.00000
      6     -22.8675      1.00000
      7     -22.6211      1.00000
      8     -22.5922      1.00000
      9     -22.5443      1.00000
     10     -22.5312      1.00000
     11     -22.4760      1.00000
     12     -22.4124      1.00000
     13     -21.6934      1.00000
     14     -21.6441      1.00000
     15     -21.5636      1.00000
     16     -21.4734      1.00000
     17     -14.1319      1.00000
     18     -13.3028      1.00000
     19     -13.2251      1.00000
     20     -12.7434      1.00000
     21     -10.8492      1.00000
     22     -10.4667      1.00000
     23     -10.2993      1.00000
     24     -10.0720      1.00000
     25      -9.9009      1.00000
     26      -9.8579      1.00000
     27      -9.7493      1.00000
     28      -9.5806      1.00000
     29      -9.3863      1.00000
     30      -9.3292      1.00000
     31      -9.1035      1.00000
     32      -9.0502      1.00000
     33      -1.8631      1.00000
     34      -1.7456      1.00000
     35      -1.3683      1.00000
     36      -1.2113      1.00000
     37       0.5491      1.00000
     38       1.1861      1.00000
     39       1.2869      1.00000
     40       1.5098      1.00000
     41       1.6097      1.00000
     42       1.7082      1.00000
     43       1.8089      1.00000
     44       2.1258      1.00000
     45       2.2223      1.00000
     46       2.4426      1.00000
     47       2.6100      1.00000
     48       2.8666      1.00000
     49       3.1654      1.00000
     50       3.4546      1.00000
     51       3.7523      1.00000
     52       3.8546      1.00000
     53       3.9733      1.00000
     54       4.0641      1.00000
     55       4.2983      1.00000
     56       4.4656      1.00000
     57       4.6554      1.00000
     58       4.7695      1.00000
     59       5.0455      1.00000
     60       5.3304      1.00000
[...]
     85      13.6758      0.00000
     86      13.8339      0.00000
     87      14.0682      0.00000
     88      14.2144      0.00000
     89      14.3560      0.00000
     90      14.5467      0.00000
     91      14.6463      0.00000
     92      14.8466      0.00000
     93      14.9254      0.00000
     94      15.1608      0.00000
     95      15.2124      0.00000
     96      15.3419      0.00000
     97      15.5015      0.00000
     98      15.8398      0.00000
     99      16.0358      0.00000

 soft charge-density along one line, spin component           1
         0         1         2         3         4         5         6         7         8         9
 total charge-density along one line

 soft charge-density along one line, spin component           2
         0         1         2         3         4         5         6         7         8         9
 total charge-density along one line

------------------------ aborting loop because EDIFF is reached ----------------------------------------

 total charge

# of ion     s       p       d       tot
  1        0.905   1.556   0.000   2.461
  2        0.905   1.556   0.000   2.461
  3        0.905   1.556   0.000   2.461
  4        0.905   1.556   0.000   2.461
  5        1.566   3.731   0.000   5.297
  6        1.566   3.731   0.000   5.297
  7        1.566   3.731   0.000   5.297
  8        1.566   3.731   0.000   5.297
  9        1.569   3.700   0.000   5.269
 10        1.569   3.700   0.000   5.269
 11        1.569   3.700   0.000   5.269
 12        1.569   3.700   0.000   5.269
 13        1.566   3.677   0.000   5.244
 14        1.566   3.678   0.000   5.244
 15        1.566   3.678   0.000   5.244
 16        1.566   3.678   0.000   5.244
 17        1.568   3.720   0.000   5.288
 18        1.568   3.720   0.000   5.288
 19        1.568   3.720   0.000   5.288
 20        1.568   3.720   0.000   5.288
 21        2.197   6.280   2.027  10.504
 22        2.197   6.280   2.027  10.504
 23        2.197   6.280   2.027  10.504
 24        2.197   6.280   2.027  10.504
tot       37.487  90.654   8.109 136.251

 magnetization (x)

[...]

  FORCE on cell =-STRESS in cart. coord.  units (eV):
  Direction    XX          YY          ZZ          XY          YZ          ZX
  Alpha Z   711.48137   711.48137   711.48137
  Ewald   -4006.44920 -4032.15236 -4056.50192   -88.13278  -109.28757   127.67023
  Hartree   965.59124   953.38499   898.89848    -7.05129   -56.08774    72.33983
  E(xc)    -808.21969  -808.53437  -808.74653     0.53999     0.24708    -0.02459
  Local      45.57719    99.32568   170.73223    93.96162   161.74161  -204.30979
  n-local  -298.09409  -286.12099  -286.28658   -12.05970    -8.52386     1.51426
  augment   335.90820   324.18088   334.97068    -4.41303     2.26060     2.68115
  Kinetic  3120.55266  3104.77943  3101.77539    17.14658     9.65599     0.13417
  Fock        0.00000     0.00000     0.00000     0.00000     0.00000     0.00000
  Total      66.34769    66.34462    66.32311    -0.00862     0.00612     0.00526
  in kB     604.59996   604.57202   604.37600    -0.07851     0.05578     0.04794

 VOLUME and BASIS-vectors are now :
  energy-cutoff  :      520.00
  volume of cell :      175.82
      direct lattice vectors                 reciprocal lattice vectors
     3.249680263 -1.971230769  2.604773305     0.088776087 -0.188110527  0.130797119
    -3.048289734  2.544940642  5.729066222    -0.062734105  0.052375932  0.117903094
    -5.103955115 -3.282984093 -1.257326653    -0.101935531 -0.151050718  0.012861795

  length of vectors
     4.607712722  6.970723990  6.197516655     0.245712536  0.143457122  0.182681684

 FORCES acting on ions
    electron-ion (+dipol)            ewald-force                    non-local-force                 convergence-correction
   -.217E+02 0.139E+02 0.939E+01   0.211E+02 -.131E+02 -.121E+02   0.637E+00 -.814E+00 0.270E+01   0.736E-04 -.348E-03 0.492E-03
   0.217E+02 -.139E+02 -.938E+01   -.211E+02 0.131E+02 0.121E+02   -.639E+00 0.817E+00 -.271E+01   -.107E-03 0.236E-03 -.487E-03
   -.225E+01 -.234E+01 -.272E+02   0.167E+00 0.436E+01 0.272E+02   0.208E+01 -.202E+01 -.151E-01   0.344E-03 -.437E-03 0.257E-04
   0.226E+01 0.233E+01 0.272E+02   -.175E+00 -.435E+01 -.273E+02   -.208E+01 0.203E+01 0.123E-01   -.283E-03 0.521E-03 -.698E-04
   -.544E+01 -.119E+02 -.934E+02   0.101E+02 0.112E+01 0.879E+02   -.469E+01 0.108E+02 0.548E+01   -.674E-03 -.217E-02 0.374E-02
   0.544E+01 0.119E+02 0.934E+02   -.101E+02 -.111E+01 -.879E+02   0.469E+01 -.108E+02 -.548E+01   0.475E-03 0.228E-02 -.389E-02
   -.743E+02 0.456E+02 0.360E+02   0.698E+02 -.487E+02 -.243E+02   0.448E+01 0.312E+01 -.118E+02   0.178E-02 -.418E-02 -.350E-03
   0.743E+02 -.456E+02 -.360E+02   -.698E+02 0.487E+02 0.243E+02   -.448E+01 -.312E+01 0.118E+02   -.157E-02 0.406E-02 0.503E-03
   0.120E+02 0.241E+02 0.280E+01   -.319E+01 -.509E+02 0.105E+02   -.882E+01 0.268E+02 -.133E+02   -.223E-02 0.716E-03 0.106E-02
   -.120E+02 -.241E+02 -.280E+01   0.320E+01 0.509E+02 -.105E+02   0.882E+01 -.268E+02 0.133E+02   0.248E-02 -.938E-03 -.928E-03
   0.171E+02 0.198E+02 -.681E+01   -.107E+02 -.446E+02 0.246E+02   -.641E+01 0.248E+02 -.178E+02   -.545E-03 -.662E-03 -.269E-02
   -.171E+02 -.198E+02 0.680E+01   0.107E+02 0.446E+02 -.246E+02   0.641E+01 -.248E+02 0.178E+02   0.388E-03 0.836E-03 0.240E-02
   -.752E+02 0.371E+02 0.154E+02   0.917E+02 -.370E+02 -.449E+02   -.165E+02 -.883E-01 0.294E+02   0.479E-02 -.399E-03 -.692E-02
   0.752E+02 -.371E+02 -.154E+02   -.917E+02 0.370E+02 0.449E+02   0.165E+02 0.881E-01 -.294E+02   -.479E-02 0.317E-03 0.686E-02
   -.235E+02 -.611E+01 -.818E+02   0.126E+02 0.291E+02 0.104E+03   0.109E+02 -.230E+02 -.221E+02   -.208E-02 0.542E-02 0.604E-02
   0.235E+02 0.612E+01 0.818E+02   -.126E+02 -.291E+02 -.104E+03   -.109E+02 0.230E+02 0.221E+02   0.215E-02 -.539E-02 -.611E-02
   0.256E+02 0.734E+02 0.760E+01   -.475E+02 -.618E+02 0.262E+01   0.219E+02 -.116E+02 -.102E+02   -.117E-03 -.142E-02 0.492E-02
   -.256E+02 -.734E+02 -.759E+01   0.475E+02 0.618E+02 -.262E+01   -.219E+02 0.116E+02 0.102E+02   -.142E-03 0.143E-02 -.502E-02
   0.447E+02 0.574E+02 -.283E+02   -.472E+02 -.621E+02 0.207E+01   0.246E+01 0.462E+01 0.263E+02   0.323E-02 -.402E-02 -.826E-03
   -.447E+02 -.574E+02 0.283E+02   0.472E+02 0.621E+02 -.205E+01   -.246E+01 -.462E+01 -.263E+02   -.301E-02 0.402E-02 0.983E-03
   -.569E+02 -.537E+02 0.176E+02   0.555E+02 0.559E+02 -.198E+02   0.143E+01 -.226E+01 0.222E+01   0.284E-02 -.509E-03 0.180E-02
   0.569E+02 0.537E+02 -.176E+02   -.555E+02 -.559E+02 0.198E+02   -.143E+01 0.226E+01 -.222E+01   -.290E-02 0.786E-03 -.174E-02
   -.396E+02 -.681E+02 -.149E+02   0.379E+02 0.707E+02 0.133E+02   0.175E+01 -.253E+01 0.161E+01   0.281E-02 -.688E-03 0.198E-02
   0.396E+02 0.681E+02 0.149E+02   -.378E+02 -.707E+02 -.133E+02   -.175E+01 0.253E+01 -.161E+01   -.292E-02 0.556E-03 -.175E-02
   0.741E-02 -.109E-01 0.895E-02   -.178E-12 0.185E-12 0.160E-12   -.743E-02 0.109E-01 -.894E-02   -.314E-05 0.232E-04 0.250E-04

 POSITION                                       TOTAL-FORCE (eV/Angst)
     -0.91098     -3.47617      2.96821        -0.000367     -0.000272     -0.004693
     -3.99157      0.76688      4.10832        -0.000940      0.002513      0.003079
      1.48881     -1.70761      3.88291        -0.000004     -0.002160     -0.007841
     -6.39137     -1.00168      3.19362        -0.001203      0.004315      0.006118
     -2.02398     -4.51456      2.35763        -0.002920      0.003192      0.000400
     -2.87858      1.80528      4.71888         0.003022     -0.003058     -0.000438
      0.03107     -2.45820      3.92023        -0.000231      0.001683     -0.003367
     -4.93363     -0.25108      3.15628         0.000255     -0.001485      0.003381
     -3.52266     -2.62821      1.18987        -0.007102     -0.001555      0.003403
     -1.37991     -0.08105      5.88664         0.007797      0.000189     -0.002831
     -1.13147     -0.85248      2.12072        -0.003323     -0.004855     -0.003693
     -3.77110     -1.85679      4.95578         0.003731      0.003719      0.004799
     -0.40182     -3.17609      1.56909        -0.001498     -0.002299      0.002485
     -4.50074      0.46682      5.50742         0.001022      0.001963     -0.001429
      0.89341     -0.48539      4.55974        -0.001901      0.001052      0.002117
     -5.79598     -2.22387      2.51678         0.002226     -0.002089     -0.002657
     -2.03499     -2.54234      3.40986        -0.005176      0.004748      0.001044
     -2.86759     -0.16692      3.66666         0.006427     -0.005509     -0.001444
      1.41037     -1.64671      2.35942        -0.000642      0.001061     -0.000809
     -6.31294     -1.06256      4.71708         0.000866     -0.000947      0.002296
     -5.14568     -1.27320      6.22307        -0.000539      0.003446      0.000865
      0.24311     -1.43607      0.85345         0.000658     -0.003703     -0.001193
     -1.13147     -0.85249      4.10357         0.000609      0.002463     -0.002903
     -3.77110     -1.85679      2.97294        -0.000769     -0.002410      0.003309
    total drift:                               -0.000016      0.000023      0.000036

  FREE ENERGIE OF THE ION-ELECTRON SYSTEM (eV)
  free  energy   TOTEN  =      -196.23712791 eV

  energy  without entropy=     -196.23712791  energy(sigma->0) =     -196.23712791

 writing wavefunctions

 total charge

[...]

 magnetization (x)

# of ion     s       p       d       tot
  1        0.000  -0.001   0.000  -0.001
  2       -0.000   0.001   0.000   0.001
  3       -0.000   0.001   0.000   0.001
  4        0.000  -0.001   0.000  -0.001
  5       -0.000  -0.003   0.000  -0.003
  6        0.000   0.003   0.000   0.003
  7        0.000   0.003   0.000   0.003
  8       -0.000  -0.003   0.000  -0.003
  9        0.001  -0.009   0.000  -0.008
 10       -0.001   0.009   0.000   0.008
 11       -0.001   0.009   0.000   0.008
 12        0.001  -0.009   0.000  -0.008
 13       -0.000  -0.010   0.000  -0.010
 14        0.000   0.010   0.000   0.010
 15        0.000   0.010   0.000   0.010
 16       -0.000  -0.010   0.000  -0.010
 17       -0.000  -0.012   0.000  -0.012
 18        0.000   0.012   0.000   0.012
 19        0.000   0.012   0.000   0.012
 20       -0.000  -0.012   0.000  -0.012
 21       -0.005  -0.008  -0.827  -0.839
 22        0.005   0.008   0.827   0.839
 23        0.005   0.008   0.827   0.839
 24       -0.005  -0.008  -0.827  -0.839
tot        0.000  -0.000   0.000  -0.000

 BZINTS: Fermi energy: 11.965025;164.000000 electrons
         Band energy:-779.770549;  BLOECHL correction:  0.000000